% Auto-generated by scripts/generate_dzn.py
% problem_type   = regex
% instance       = regex_67
% source_json    = instances_json/1_medium_blowup/regex_67.json
% blowup         = 3.1363636363636362
% representation = DFA

mode = 0;

var_count = 19;
n_constraints = 2;
Q = 55;
S = 2;
q0 = [1, 1];
F = [{35, 36, 37, 38, 39, 40, 41, 42, 43, 44, 45, 46, 47, 48, 49, 50, 51, 52, 53, 54, 55}, {13}];
weights = [6, 7, 9, 3, 4, 10, 7, 9, 9, 6, 8, 2, 7, 6, 1, 2, 9, 4, 10];
d_dfa = array3d(1..2, 1..55, 1..2, [
  % k = 1
    1, 2,
    3, 2,
    5, 4,
    7, 6,
    8, 6,
    10, 9,
    12, 11,
    13, 9,
    15, 14,
    17, 16,
    19, 18,
    20, 18,
    21, 14,
    23, 22,
    25, 24,
    27, 26,
    28, 26,
    30, 29,
    32, 31,
    33, 29,
    34, 22,
    36, 35,
    38, 37,
    40, 39,
    41, 39,
    43, 42,
    45, 44,
    46, 42,
    48, 47,
    50, 49,
    52, 51,
    53, 51,
    54, 47,
    55, 35,
    3, 2,
    5, 4,
    7, 6,
    8, 6,
    10, 9,
    12, 11,
    13, 9,
    15, 14,
    17, 16,
    19, 18,
    20, 18,
    21, 14,
    23, 22,
    25, 24,
    27, 26,
    28, 26,
    30, 29,
    32, 31,
    33, 29,
    34, 22,
    1, 2,

  % k = 2
    2, 1,
    3, 2,
    4, 3,
    5, 4,
    6, 5,
    7, 6,
    8, 7,
    9, 8,
    10, 9,
    11, 10,
    12, 11,
    13, 12,
    14, 13,
    14, 14,
    0, 0,
    0, 0,
    0, 0,
    0, 0,
    0, 0,
    0, 0,
    0, 0,
    0, 0,
    0, 0,
    0, 0,
    0, 0,
    0, 0,
    0, 0,
    0, 0,
    0, 0,
    0, 0,
    0, 0,
    0, 0,
    0, 0,
    0, 0,
    0, 0,
    0, 0,
    0, 0,
    0, 0,
    0, 0,
    0, 0,
    0, 0,
    0, 0,
    0, 0,
    0, 0,
    0, 0,
    0, 0,
    0, 0,
    0, 0,
    0, 0,
    0, 0,
    0, 0,
    0, 0,
    0, 0,
    0, 0,
    0, 0
]);
d_nfa = array3d(1..2, 1..55, 1..2, [
  % k = 1
    {}, {},
    {}, {},
    {}, {},
    {}, {},
    {}, {},
    {}, {},
    {}, {},
    {}, {},
    {}, {},
    {}, {},
    {}, {},
    {}, {},
    {}, {},
    {}, {},
    {}, {},
    {}, {},
    {}, {},
    {}, {},
    {}, {},
    {}, {},
    {}, {},
    {}, {},
    {}, {},
    {}, {},
    {}, {},
    {}, {},
    {}, {},
    {}, {},
    {}, {},
    {}, {},
    {}, {},
    {}, {},
    {}, {},
    {}, {},
    {}, {},
    {}, {},
    {}, {},
    {}, {},
    {}, {},
    {}, {},
    {}, {},
    {}, {},
    {}, {},
    {}, {},
    {}, {},
    {}, {},
    {}, {},
    {}, {},
    {}, {},
    {}, {},
    {}, {},
    {}, {},
    {}, {},
    {}, {},
    {}, {},

  % k = 2
    {}, {},
    {}, {},
    {}, {},
    {}, {},
    {}, {},
    {}, {},
    {}, {},
    {}, {},
    {}, {},
    {}, {},
    {}, {},
    {}, {},
    {}, {},
    {}, {},
    {}, {},
    {}, {},
    {}, {},
    {}, {},
    {}, {},
    {}, {},
    {}, {},
    {}, {},
    {}, {},
    {}, {},
    {}, {},
    {}, {},
    {}, {},
    {}, {},
    {}, {},
    {}, {},
    {}, {},
    {}, {},
    {}, {},
    {}, {},
    {}, {},
    {}, {},
    {}, {},
    {}, {},
    {}, {},
    {}, {},
    {}, {},
    {}, {},
    {}, {},
    {}, {},
    {}, {},
    {}, {},
    {}, {},
    {}, {},
    {}, {},
    {}, {},
    {}, {},
    {}, {},
    {}, {},
    {}, {},
    {}, {}
]);
